p edge 33 166
e 1 4
e 1 12
e 1 13
e 1 14
e 1 18
e 1 28
e 2 4
e 2 9
e 2 10
e 2 13
e 2 15
e 2 27
e 2 32
e 3 4
e 3 7
e 3 13
e 3 18
e 3 21
e 3 22
e 3 23
e 3 27
e 3 29
e 3 30
e 4 12
e 4 13
e 4 21
e 4 22
e 4 23
e 4 24
e 4 25
e 4 27
e 4 28
e 4 29
e 5 7
e 5 9
e 5 11
e 5 14
e 5 19
e 5 20
e 5 21
e 6 7
e 6 10
e 6 13
e 6 15
e 6 17
e 6 23
e 6 27
e 6 28
e 6 29
e 6 30
e 6 32
e 7 8
e 7 11
e 7 12
e 7 17
e 7 19
e 7 21
e 7 22
e 7 24
e 7 27
e 7 28
e 7 29
e 7 30
e 7 31
e 8 10
e 8 13
e 8 14
e 8 15
e 8 16
e 8 22
e 8 23
e 8 28
e 8 32
e 9 13
e 9 19
e 9 22
e 9 24
e 9 26
e 9 28
e 9 31
e 10 14
e 10 17
e 10 23
e 10 31
e 11 12
e 11 21
e 11 25
e 12 16
e 12 21
e 12 24
e 12 30
e 12 33
e 13 14
e 13 21
e 13 22
e 13 23
e 13 27
e 13 29
e 13 33
e 14 15
e 14 19
e 14 20
e 14 25
e 14 28
e 14 30
e 15 23
e 15 27
e 15 28
e 15 29
e 15 32
e 16 19
e 16 22
e 16 23
e 16 26
e 16 30
e 17 18
e 17 19
e 17 27
e 17 29
e 18 19
e 18 20
e 18 22
e 18 23
e 18 28
e 18 29
e 18 31
e 18 32
e 19 21
e 19 30
e 19 31
e 20 21
e 20 22
e 20 25
e 20 27
e 20 32
e 20 33
e 21 25
e 21 26
e 21 27
e 21 28
e 22 23
e 22 24
e 22 26
e 22 27
e 22 28
e 22 29
e 22 30
e 22 31
e 22 32
e 23 26
e 23 28
e 23 33
e 24 31
e 25 26
e 25 29
e 25 31
e 25 32
e 25 33
e 26 33
e 27 29
e 27 32
e 27 33
e 28 30
e 28 32
e 29 30
e 30 32
